50
750 750
1 588 976
2 573 249
3 564 441
4 550 672
5 509 935
6 508 293
7 503 25
8 499 866
9 495 845
10 468 466
11 456 704
12 442 576
13 432 19
14 423 878
15 409 872
16 402 443
17 399 598
18 396 641
19 393 903
20 382 401
21 370 851
22 355 751
23 344 286
24 323 471
25 315 393
26 309 5
27 306 224
28 302 601
29 297 54
30 296 312
31 283 172
32 268 53
33 253 299
34 240 682
35 230 937
36 210 67
37 206 944
38 195 735
39 193 586
40 180 901
41 174 1
42 165 965
43 164 509
44 154 743
45 148 512
46 133 426
47 91 607
48 90 120
49 85 909
50 79 720
